============================[ Problem Statistics ]=============================|                                                                             ||  Number of variables:          4242                                         ||  Number of clauses:           10086                                         ||  Parse time:                   0.48 s                                       ||                                                                             |============================[ Search Statistics ]==============================| Conflicts |          ORIGINAL         |          LEARNT          | Progress ||           |    Vars  Clauses Literals |    Limit  Clauses Lit/Cl |          |===============================================================================|       100 |    1591     6291   756382 |     2306      100     53 | 62.501 % ||       250 |    1591     6291   756382 |     2537      250     75 | 62.495 % |===============================================================================restarts              : 3conflicts             : 267            (373 /sec)decisions             : 533            (0.00 % random) (744 /sec)propagations          : 11788          (16464 /sec)conflict literals     : 20504          (94.84 % deleted)CPU time              : 0.716 sSATISFIABLE